CMD:
./solvers/bin/cadical --plain --no-reduce -t 1600 ./data/cnfs//bobsynth09neg/bobsynth09neg.32.cnf

c --- [ banner ] -------------------------------------------------------------
c 
c CaDiCaL SAT Solver
c Copyright (c) 2016-2024
c A. Biere, M. Fleury, N. Froleyks, K. Fazekas, F. Pollitt, T. Faller
c JKU Linz, University of Freiburg, TU Wien
c 
c Version 2.1.3 5296d3d2a9bf48c154ab2acb5e44625776d821bf
c g++ (Gentoo 12.3.1_p20230526 p2) 12.3.1 20230526 -Wall -Wextra -O3 -DNDEBUG
c Sat Aug 9 07:26:21 PDT 2025 Linux cedar2.int.cedar.computecanada.ca 5.14.0-362.24.2.el9_3.x86_64 x86_64
c 
c --- [ limit ] --------------------------------------------------------------
c 
c setting time limit to 1600 seconds real time (due to '-t 1600')
c 
c --- [ parsing input ] ------------------------------------------------------
c 
c reading DIMACS file from './data/cnfs//bobsynth09neg/bobsynth09neg.32.cnf'
c opening file to read './data/cnfs//bobsynth09neg/bobsynth09neg.32.cnf'
c found 'p cnf 516097 1525932' header
c parsed 1525932 clauses in 0.26 seconds process time
c 
c --- [ options ] ------------------------------------------------------------
c 
c   --compact=false                (different from default 'true')
c   --decompose=false              (different from default 'true')
c   --deduplicate=false            (different from default 'true')
c   --elim=false                   (different from default 'true')
c   --probe=false                  (different from default 'true')
c   --reduce=false                 (different from default 'true')
c   --subsume=false                (different from default 'true')
c   --ternary=false                (different from default 'true')
c   --transred=false               (different from default 'true')
c   --vivify=false                 (different from default 'true')
c 
c --- [ solving ] ------------------------------------------------------------
c 
c time measured in process time since initialization
c 
c  seconds   reductions  redundant   irredundant
c          MB    restarts       trail        variables
c           level   conflicts       glue           remaining
c 
c *  0.26 219  0 0   0    0    0  0% 0 1310232 393693 76%
c {  0.34 223  0 0   0    0    0  0% 0 1310232 393693 76%
c i  0.34 223 142 0   0   16   13 24% 1 1310232 393692 76%
c i  0.34 223 148 0   0   17   13 24% 1 1310232 393617 76%
c i  0.34 223 190 0   0   30   15 25% 1 1310232 393490 76%
c i  0.34 223 197 0   0   34   16 25% 1 1310232 393446 76%
c i  0.34 223 199 0   0   35   16 25% 1 1310232 393431 76%
c i  0.34 223 205 0   0   38   16 25% 1 1310232 393391 76%
c i  0.34 223 208 0   0   43   17 25% 1 1310232 393339 76%
c i  0.34 223 216 0   0   49   20 25% 1 1310232 393296 76%
c i  0.34 223 222 0   0   53   22 25% 1 1310232 393295 76%
c i  0.34 223 224 0   0   56   22 25% 1 1310232 393162 76%
c i  0.34 223 227 0   0   61   23 25% 1 1310232 392981 76%
c i  0.34 223 228 0   0   65   24 25% 1 1310232 392825 76%
c i  0.34 223 230 0   0   69   25 25% 1 1310232 392669 76%
c i  0.34 223 231 0   0   73   26 25% 1 1310232 392513 76%
c i  0.34 223 232 0   0   77   27 25% 1 1310232 392357 76%
c i  0.34 223 234 0   0   81   28 25% 1 1310232 392201 76%
c i  0.34 223 234 0   0   85   29 25% 1 1310232 392045 76%
c i  0.34 223 235 0   0   89   30 25% 1 1310232 391889 76%
c 
c  seconds    reductions  redundant   irredundant
c          MB     restarts       trail        variables
c            level   conflicts       glue           remaining
c 
c i  0.34 223 236 0   0   93   31 25% 1 1310232 391733 76%
c i  0.34 223 237 0   0   97   32 25% 1 1310232 391577 76%
c i  0.34 223 237 0   0  101   33 26% 0 1310232 391421 76%
c i  0.34 223 238 0   0  105   34 26% 0 1310232 391265 76%
c i  0.34 223 238 0   0  109   35 26% 0 1310232 391109 76%
c i  0.34 223 239 0   0  113   36 26% 0 1310232 390953 76%
c i  0.35 223 239 0   0  117   37 26% 0 1310232 390797 76%
c i  0.35 223 240 0   0  121   38 26% 0 1310232 390641 76%
c i  0.35 223 240 0   0  125   39 26% 0 1310232 390485 76%
c i  0.35 223 240 0   0  129   40 26% 0 1310232 390329 76%
c i  0.35 223 241 0   0  133   41 26% 0 1310232 390173 76%
c i  0.35 223 241 0   0  137   42 26% 0 1310232 390017 76%
c i  0.35 223 241 0   0  139   43 26% 0 1310232 389989 76%
c i  0.35 223 232 0   2  145   47 26% 1 1310232 389075 75%
c i  0.35 223 227 0   3  148   48 26% 1 1310232 388971 75%
c i  0.35 223 224 0   4  150   49 26% 1 1310232 388970 75%
c i  0.35 223 223 0   5  157   52 26% 1 1310232 388530 75%
c i  0.36 223 207 0  10  173   66 26% 1 1310232 388524 75%
c i  0.36 223 203 0  11  176   68 26% 1 1310232 388208 75%
c i  0.36 223 200 0  11  178   69 26% 1 1310232 388052 75%
c 
c  seconds    reductions  redundant   irredundant
c          MB     restarts       trail        variables
c            level   conflicts       glue           remaining
c 
c i  0.36 223 199 0  12  179   69 26% 1 1310232 387098 75%
c i  0.36 223 194 0  13  183   72 26% 1 1310232 386452 75%
c i  0.39 223 229 0  21  210   98 26% 1 1310232 386450 75%
c i  0.39 223 225 0  22  213  100 26% 1 1310232 386442 75%
... skipped 36 lines ...
c i  0.39 224 182 0  30  261  116 26% 1 1310232 386298 75%
c i  0.39 224 182 0  30  262  116 26% 1 1310232 386293 75%
c i  0.39 224 180 0  30  264  117 26% 1 1310232 386291 75%
c i  0.39 224 180 0  30  265  117 26% 1 1310232 386286 75%
c i  0.39 224 179 0  30  267  118 26% 1 1310232 386284 75%
c 
c  seconds    reductions  redundant   irredundant
c          MB     restarts       trail        variables
c            level   conflicts       glue           remaining
c 
c i  0.39 224 178 0  30  268  118 26% 1 1310232 386279 75%
c i  0.39 224 177 0  30  270  119 26% 1 1310232 386277 75%
c i  0.39 224 176 0  30  271  119 26% 1 1310232 386272 75%
c i  0.39 224 175 0  30  273  120 26% 1 1310232 386270 75%
c i  0.40 224 175 0  30  274  120 26% 1 1310232 386265 75%
c i  0.40 224 174 0  30  276  121 26% 1 1310232 386263 75%
c i  0.40 224 173 0  30  277  121 26% 1 1310232 386257 75%
c i  0.40 224 172 0  30  279  122 26% 1 1310232 386255 75%
c i  0.40 224 172 0  30  280  122 26% 1 1310232 386250 75%
c i  0.40 224 179 0  30  288  128 26% 1 1310232 385881 75%
c i  0.40 224 177 0  30  293  132 26% 1 1310232 385873 75%
c i  0.41 224 177 0  30  294  132 26% 1 1310232 385871 75%
c i  0.41 224 176 0  30  295  132 26% 1 1310232 385870 75%
c i  0.42 224 146 0  50  368  203 27% 1 1310232 385490 75%
c i  0.42 224 130 0  67  427  260 27% 1 1310232 385426 75%
c i  0.43 224 127 0  70  439  268 27% 1 1310232 376158 73%
c i  0.43 224 126 0  72  445  272 27% 1 1310232 376054 73%
c i  0.44 224 122 0  77  465  289 27% 1 1310232 376051 73%
c i  0.44 224 121 0  77  467  290 27% 1 1310232 376049 73%
c i  0.47 225 113 0  88  504  324 27% 1 1310232 375546 73%
c 
c  seconds    reductions  redundant   irredundant
c          MB     restarts       trail        variables
c            level   conflicts       glue           remaining
c 
c i  0.47 225 112 0  90  511  328 27% 1 1310232 374743 73%
c i  0.47 225 112 0  90  512  328 27% 1 1310232 370072 72%
c i  0.48 225 110 0  92  518  333 27% 1 1310232 370036 72%
c i  0.55 225 101 0 107  572  376 28% 2 1310232 368462 71%
c i  0.55 225 101 0 108  576  379 28% 2 1310232 368461 71%
c i  0.59 226 93 0 123  636  431 29% 2 1310232 368459 71%
c i  0.59 226 92 0 124  637  431 29% 2 1310232 368458 71%
c i  0.59 226 92 0 124  638  431 29% 2 1310232 368395 71%
c i  0.59 226 92 0 124  639  431 29% 2 1310232 368394 71%
c i  0.66 226 74 0 169  815  585 29% 2 1310232 368393 71%
c i  0.71 227 65 0 205  963  712 30% 2 1310232 367859 71%
c i  0.71 227 64 0 207  973  721 30% 2 1310232 367796 71%
c i  0.72 227 63 0 211  985  732 30% 2 1310232 359498 70%
c i  0.72 227 63 0 211  986  732 30% 2 1310232 358946 70%
c }  0.72 227 63 0 211  996  739 30% 2 1310232 358945 70%
c 0  0.72 227 63 0 211  996  739 30% 2 1310232 358945 70%
c 
c --- [ result ] -------------------------------------------------------------
c 
s UNSATISFIABLE
c 
c --- [ run-time profiling ] -------------------------------------------------
c 
c process time taken by individual solving procedures
c (percentage relative to process time for solving)
c 
c         0.46   99.97% search
c         0.38   83.58% unstable
c         0.26   56.36% parse
c         0.08   16.39% lucky
c         0.00    0.00% simplify
c   =================================
c         0.46   63.90% solve
c 
c last line shows process time for solving
c (percentage relative to total process time)
c 
c --- [ statistics ] ---------------------------------------------------------
c 
c chronological:               531        53.31 %  of conflicts
c conflicts:                   996      2163.14    per second
c decisions:                 11852     25740.48    per second
c fixed:                    157088        30.44 %  of all variables
c learned:                     943        94.68 %  per conflict
c learned_lits:               4555       100.00 %  learned literals
c minimized:                     0         0.00 %  learned literals
c shrunken:                    744        16.33 %  learned literals
c minishrunken:                206         4.52 %  learned literals
c otfs:                         13         1.31 %  of conflict
c propagations:            5307317        11.53 M  per second
c restarts:                    211         4.72    interval
c subsumed:                     37         0.00 %  of all clauses
c strengthened:                 13         0.00 %  of all clauses
c 
c seconds are measured in process time for solving
c 
c --- [ resources ] ----------------------------------------------------------
c 
c total process time since initialization:         0.72    seconds
c total real time since initialization:            0.73    seconds
c maximum resident set size of process:          224.57    MB
c 
c --- [ shutting down ] ------------------------------------------------------
c 
c exit 20
